20:24:37 | INFO    | Run started | run_id: MR_MV_RD_case1_P5_R3_eps9999 | log file: C:\Users\Asus\Documents\GitHub\logistics-model2\internal-logistics-model2\results\MR_MV_RD\case1\MR_MV_RD_case1_P5_R3_eps9999_2026_05_04_20_24.log
20:24:37 | INFO    | Products loaded | sheet=case1 | rows=10
20:24:37 | INFO    | Data loaded | |N|=26 |Nw|=25 |K|=3 |R|=3 |P|=5 | U=25
20:24:37 | INFO    | Big-M | time=491.0 precedence=480.0 wait=465.0 load_lb=20 load_ub=20
20:24:37 | INFO    | Set parameter Username
20:24:37 | INFO    | Set parameter LicenseID to value 2811848
20:24:37 | INFO    | Academic license - for non-commercial use only - expires 2027-04-22
20:24:37 | INFO    | Objective set | primary: min route_duration | tie-break weight on wait: 0.001
20:24:37 | INFO    | Constraint (3) added | total_wait <= 9999
20:24:37 | INFO    | Constraints (4)-(9) added | route structure
20:24:37 | INFO    | Constraints (10)-(12) added | product assignment
20:24:37 | INFO    | Constraints (13)-(15) added | route timing
20:24:37 | INFO    | Constraints (16) added | time consistency
20:24:37 | INFO    | Constraints (17)-(19) added | service times
20:24:38 | INFO    | Constraints (20)-(22) added | precedence, route closure, waiting
20:24:38 | INFO    | Constraints (23)-(27) added | load propagation
20:24:38 | INFO    | Constraints (28)-(32) added | MTZ and route ordering
20:24:38 | INFO    | Set parameter TimeLimit to value 600
20:24:38 | INFO    | Set parameter MIPGap to value 0.01
20:24:38 | INFO    | Set parameter Presolve to value 2
20:24:38 | INFO    | Set parameter LogFile to value "C:\Users\Asus\Documents\GitHub\logistics-model2\internal-logistics-model2\results\MR_MV_RD\case1\result_MR_MV_RD_case1_P5_R3_eps9999_2026_05_04_20_24.log"
20:24:38 | INFO    | Solver configured | TimeLimit=600s | MIPGap=0.01 | gurobi_log=C:\Users\Asus\Documents\GitHub\logistics-model2\internal-logistics-model2\results\MR_MV_RD\case1\result_MR_MV_RD_case1_P5_R3_eps9999_2026_05_04_20_24.log
20:24:38 | INFO    | Optimization starting...
20:24:38 | INFO    | Gurobi Optimizer version 12.0.0 build v12.0.0rc1 (win64 - Windows 10.0 (19045.2))
20:24:38 | INFO    | 
20:24:38 | INFO    | CPU model: 12th Gen Intel(R) Core(TM) i7-12650H, instruction set [SSE2|AVX|AVX2]
20:24:38 | INFO    | Thread count: 10 physical cores, 16 logical processors, using up to 16 threads
20:24:38 | INFO    | 
20:24:38 | INFO    | Non-default parameters:
20:24:38 | INFO    | TimeLimit  600
20:24:38 | INFO    | MIPGap  0.01
20:24:38 | INFO    | Presolve  2
20:24:38 | INFO    | 
20:24:38 | INFO    | Optimize a model with 24417 rows, 7277 columns and 122579 nonzeros
20:24:38 | INFO    | Model fingerprint: 0x3e7f13ab
20:24:38 | INFO    | Variable types: 1157 continuous, 6120 integer (5895 binary)
20:24:38 | INFO    | Coefficient statistics:
20:24:38 | INFO    |   Matrix range     [1e+00, 5e+02]
20:24:38 | INFO    |   Objective range  [1e-03, 1e+00]
20:24:38 | INFO    |   Bounds range     [1e+00, 3e+01]
20:24:38 | INFO    |   RHS range        [1e+00, 1e+04]
20:24:38 | INFO    | Presolve removed 20037 rows and 5808 columns
20:24:38 | INFO    | Presolve time: 0.29s
20:24:38 | INFO    | Presolved: 4380 rows, 1469 columns, 28262 nonzeros
20:24:38 | INFO    | Variable types: 389 continuous, 1080 integer (990 binary)
20:24:38 | INFO    | Root relaxation presolve removed 15 rows and 0 columns
20:24:38 | INFO    | Root relaxation presolved: 4365 rows, 1475 columns, 28079 nonzeros
20:24:38 | INFO    | 
20:24:38 | INFO    | 
20:24:38 | INFO    | Root relaxation: objective 0.000000e+00, 333 iterations, 0.02 seconds (0.04 work units)
20:24:38 | INFO    | 
20:24:38 | INFO    |     Nodes    |    Current Node    |     Objective Bounds      |     Work
20:24:38 | INFO    |  Expl Unexpl |  Obj  Depth IntInf | Incumbent    BestBd   Gap | It/Node Time
20:24:38 | INFO    | 
20:24:38 | INFO    |      0     0    0.00000    0   76          -    0.00000      -     -    0s
20:24:38 | INFO    | H    0     0                    32958.999000    0.00000   100%     -    0s
20:24:38 | INFO    | H    0     0                     164.1350000    0.00000   100%     -    0s
20:24:38 | INFO    |      0     0    0.00000    0   91  164.13500    0.00000   100%     -    0s
20:24:38 | INFO    |      0     0    0.00000    0   80  164.13500    0.00000   100%     -    0s
20:24:38 | INFO    |      0     0    0.00000    0   61  164.13500    0.00000   100%     -    0s
20:24:39 | INFO    |      0     0    0.00000    0  106  164.13500    0.00000   100%     -    0s
20:24:39 | INFO    |      0     0    0.00000    0   64  164.13500    0.00000   100%     -    0s
20:24:39 | INFO    | H    0     0                     162.1290000    0.00000   100%     -    0s
20:24:39 | INFO    | H    0     0                     150.1150000    0.00000   100%     -    0s
20:24:39 | INFO    |      0     0    0.00000    0   65  150.11500    0.00000   100%     -    0s
20:24:39 | INFO    | H    0     0                     142.0720000    0.00000   100%     -    0s
20:24:39 | INFO    | H    0     0                     137.1420000    0.00000   100%     -    0s
20:24:39 | INFO    | H    0     0                     133.1360000    0.00000   100%     -    0s
20:24:39 | INFO    | H    0     0                     128.0950000    0.00000   100%     -    0s
20:24:39 | INFO    | H    0     0                     125.0580000    0.00000   100%     -    0s
20:24:39 | INFO    |      0     0    0.00000    0   80  125.05800    0.00000   100%     -    0s
20:24:39 | INFO    | H    0     0                     109.2030000    0.00000   100%     -    1s
20:24:39 | INFO    |      0     0    0.00000    0   77  109.20300    0.00000   100%     -    1s
20:24:39 | INFO    |      0     0    0.00150    0   67  109.20300    0.00150   100%     -    1s
20:24:39 | INFO    |      0     0    0.00150    0   62  109.20300    0.00150   100%     -    1s
20:24:39 | INFO    | H    0     0                     109.1910000    0.00480   100%     -    1s
20:24:39 | INFO    |      0     0    0.00480    0   86  109.19100    0.00480   100%     -    1s
20:24:39 | INFO    | H    0     0                     106.2010000    0.00495   100%     -    1s
20:24:39 | INFO    |      0     0    0.00495    0   74  106.20100    0.00495   100%     -    1s
20:24:39 | INFO    |      0     0    0.00600    0  180  106.20100    0.00600   100%     -    1s
20:24:39 | INFO    | H    0     0                     102.1850000    0.00606   100%     -    1s
20:24:39 | INFO    |      0     0    0.00606    0  155  102.18500    0.00606   100%     -    1s
20:24:40 | INFO    |      0     0    0.00902    0  195  102.18500    0.00902   100%     -    1s
20:24:40 | INFO    |      0     0    0.00926    0  163  102.18500    0.00926   100%     -    1s
20:24:40 | INFO    |      0     0    0.01081    0  203  102.18500    0.01081   100%     -    1s
20:24:40 | INFO    |      0     0    0.01243    0  177  102.18500    0.01243   100%     -    1s
20:24:40 | INFO    | H    0     0                      99.1700000    0.01243   100%     -    2s
20:24:40 | INFO    |      0     0    0.01243    0  192   99.17000    0.01243   100%     -    2s
20:24:40 | INFO    | H    0     0                      97.1720000    0.01243   100%     -    2s
20:24:40 | INFO    |      0     0    0.01243    0  183   97.17200    0.01243   100%     -    2s
20:24:40 | INFO    |      0     0    0.01243    0  225   97.17200    0.01243   100%     -    2s
20:24:40 | INFO    |      0     0    0.01243    0  202   97.17200    0.01243   100%     -    2s
20:24:40 | INFO    |      0     0    0.01458    0  224   97.17200    0.01458   100%     -    2s
20:24:41 | INFO    | H    0     0                      97.1700000    0.01458   100%     -    2s
20:24:41 | INFO    | H    0     0                      96.1680000    0.01458   100%     -    2s
20:24:41 | INFO    | H    0     0                      94.1590000    0.01486   100%     -    2s
20:24:41 | INFO    | H    0     0                      87.1310000    0.01486   100%     -    2s
20:24:41 | INFO    |      0     0    0.01486    0  136   87.13100    0.01486   100%     -    2s
20:24:41 | INFO    |      0     0    0.01497    0  142   87.13100    0.01497   100%     -    2s
20:24:41 | INFO    |      0     0    0.01497    0  195   87.13100    0.01497   100%     -    2s
20:24:41 | INFO    |      0     0    0.01500    0  159   87.13100    0.01500   100%     -    3s
20:24:41 | INFO    |      0     0    0.01500    0  166   87.13100    0.01500   100%     -    3s
20:24:41 | INFO    |      0     0    0.01500    0   83   87.13100    0.01500   100%     -    3s
20:24:41 | INFO    |      0     0    0.01500    0  122   87.13100    0.01500   100%     -    3s
20:24:41 | INFO    |      0     0    0.01500    0   56   87.13100    0.01500   100%     -    3s
20:24:41 | INFO    |      0     0    0.01500    0  101   87.13100    0.01500   100%     -    3s
20:24:42 | INFO    |      0     0    0.01500    0   70   87.13100    0.01500   100%     -    3s
20:24:42 | INFO    |      0     0    0.01500    0  106   87.13100    0.01500   100%     -    3s
20:24:42 | INFO    | H    0     0                      81.1130000    0.01500   100%     -    4s
20:24:42 | INFO    | H    0     0                      81.1000000    0.01500   100%     -    4s
20:24:42 | INFO    | H    0     0                      79.0900000    0.01500   100%     -    4s
20:24:42 | INFO    |      0     0    0.01500    0   79   79.09000    0.01500   100%     -    4s
20:24:42 | INFO    |      0     0    0.01500    0   76   79.09000    0.01500   100%     -    4s
20:24:43 | INFO    |      0     2    0.01500    0   46   79.09000    0.01500   100%     -    4s
20:24:43 | INFO    |      7    13    0.01507    3  206   79.09000    0.01507   100%   442    5s
20:24:44 | INFO    | H  687   536                      77.1020000    0.02189   100%  74.7    6s
20:24:48 | INFO    |   2553  1455    0.10721   33  257   77.10200    0.03043   100%  49.8   10s
20:24:53 | INFO    |   3517  1570   65.07111   43   21   77.10200    0.03043   100%  63.2   15s
20:24:57 | INFO    | H 5650  1631                      77.0920000    0.03338   100%  59.9   19s
20:24:58 | INFO    |   6091  1629    0.04686   33   50   77.09200    0.03427   100%  59.2   20s
20:24:59 | INFO    | H 7986  1972                      77.0910000    0.03637   100%  53.2   21s
20:25:03 | INFO    |  13117  3754    0.06376   41   60   77.09100    0.04434   100%  47.0   25s
20:25:07 | INFO    | H20061  5980                      77.0910000    0.05143   100%  41.2   29s
20:25:08 | INFO    | H20333  6088                      77.0909965    0.05144   100%  41.1   29s
20:25:08 | INFO    |  20334  6170   50.07750   74   19   77.09100    0.05144   100%  41.1   30s
20:25:13 | INFO    |  27368  8738 infeasible   65        77.09100    0.05500   100%  39.7   35s
20:25:25 | INFO    |  32309 10277    0.06397   46   76   77.09100    0.05588   100%  37.2   46s
20:25:28 | INFO    |  32318 10283   56.01500   65  418   77.09100    0.05588   100%  37.2   50s
20:25:33 | INFO    |  32327 10289    1.14214   68  473   77.09100    0.05588   100%  37.2   55s
20:25:38 | INFO    |  32333 10293    0.06874   44  451   77.09100    0.05588   100%  37.2   60s
20:25:39 | INFO    | H32333  9777                      77.0909964    0.05588   100%  37.2   61s
20:25:43 | INFO    |  32339  9781   56.01500   31  464   77.09100    0.05588   100%  37.2   65s
20:25:48 | INFO    |  32348  9787   70.04501   28  465   77.09100    0.05588   100%  37.1   70s
20:25:53 | INFO    |  32356  9792    0.06549   84  454   77.09100    0.05588   100%  37.1   75s
20:25:58 | INFO    |  32364  9798    0.06899   40  469   77.09100    0.05588   100%  37.1   80s
20:26:03 | INFO    |  32372  9803   31.90497   67  468   77.09100    0.05588   100%  37.1   85s
20:26:08 | INFO    |  32381  9809    0.06512   59  480   77.09100    0.05588   100%  37.1   90s
20:26:13 | INFO    |  32387  9813    0.07184   59  488   77.09100    0.05588   100%  37.1   95s
20:26:18 | INFO    |  32392  9816    0.06836   91  480   77.09100    0.05588   100%  37.1  100s
20:26:22 | INFO    | H32395  9326                      77.0908753    0.05588   100%  37.1  104s
20:26:23 | INFO    |  32396  9327   60.06535   59  479   77.09088    0.05588   100%  37.1  105s
20:26:29 | INFO    |  32401  9330   73.09774   40  483   77.09088    0.05734   100%  37.1  110s
20:26:33 | INFO    |  32405  9333   42.05521   52  480   77.09088    0.05792   100%  37.1  115s
20:26:39 | INFO    |  32411  9337    0.06026   37  476   77.09088    0.05892   100%  37.1  120s
20:26:44 | INFO    |  32417  9341    0.07628   75  469   77.09088    0.05950   100%  37.1  125s
20:26:48 | INFO    |  32422  9344    0.08100   60  475   77.09088    0.06051   100%  37.1  130s
20:26:54 | INFO    |  32428  9348    0.08648   55  481   77.09088    0.06100   100%  37.1  135s
20:26:59 | INFO    |  32433  9352    0.06874   44  499   77.09088    0.06140   100%  37.1  140s
20:27:03 | INFO    |  32437  9354    0.09596   69  505   77.09088    0.06200   100%  37.0  145s
20:27:08 | INFO    |  32442  9358   66.08301   40  490   77.09088    0.06244   100%  37.0  150s
20:27:13 | INFO    |  32447  9361    0.08573   54  489   77.09088    0.06313   100%  37.0  155s
20:27:19 | INFO    |  32453  9365    0.09677   88  497   77.09088    0.06400   100%  37.0  160s
20:27:24 | INFO    |  32457  9368   57.03382   26  495   77.09088    0.06443   100%  37.0  165s
20:27:28 | INFO    |  32461  9370   67.04916   56  496   77.09088    0.06473   100%  37.0  170s
20:27:33 | INFO    |  32466  9374    0.08417   52  493   77.09088    0.06500   100%  37.0  175s
20:27:38 | INFO    |  32471  9377    0.06546   54  486   77.09088    0.06546   100%  37.0  180s
20:27:43 | INFO    |  32476  9380   56.01500   51  495   77.09088    0.06600   100%  37.0  185s
20:27:48 | INFO    |  32480  9383    0.06672   39  490   77.09088    0.06672   100%  37.0  190s
20:27:53 | INFO    |  32488  9388    0.07111   65  489   77.09088    0.06765   100%  37.0  195s
20:27:58 | INFO    |  32497  9394    0.06826   39  499   77.09088    0.06826   100%  37.0  200s
20:28:03 | INFO    |  32508  9402    0.10526   23  494   77.09088    0.06911   100%  37.0  205s
20:28:08 | INFO    |  32700  9445 infeasible   35        77.09088    0.06915   100%  42.2  210s
20:28:09 | INFO    | H32806  8952                      77.0908752    0.06915   100%  42.4  211s
20:28:13 | INFO    | H33278  8510                      77.0908749    0.06915   100%  42.8  214s
20:28:13 | INFO    |  33293  8534    0.06915   39   72   77.09087    0.06915   100%  42.8  215s
20:28:13 | INFO    | H33469  8077                      77.0908571    0.06915   100%  42.8  215s
20:28:18 | INFO    |  34410  8059 infeasible   60        77.09086    0.06915   100%  43.4  220s
20:28:22 | INFO    | H35010  7641                      77.0907551    0.06915   100%  43.6  224s
20:28:23 | INFO    |  35499  7664 infeasible   65        77.09076    0.06915   100%  43.7  225s
20:28:28 | INFO    |  38669  7444   57.05374   41   32   77.09076    0.06915   100%  43.8  230s
20:28:33 | INFO    |  44962  7063    0.06915   48   27   77.09076    0.06915   100%  42.5  235s
20:28:39 | INFO    |  49419  7308    0.07244   52   22   77.09076    0.06915   100%  41.5  240s
20:28:43 | INFO    |  58713  7902    0.10255   75   24   77.09076    0.06915   100%  40.0  245s
20:28:48 | INFO    |  67968 10402 infeasible   47        77.09076    0.06915   100%  39.1  250s
20:28:53 | INFO    |  77822 12994    0.07966   75   21   77.09076    0.06915   100%  38.3  255s
20:28:58 | INFO    |  86946 14642   68.05941   57   18   77.09076    0.06915   100%  37.9  260s
20:29:03 | INFO    |  96270 16188 infeasible   45        77.09076    0.06915   100%  37.6  265s
20:29:08 | INFO    |  103778 17570 infeasible  100        77.09076    0.06915   100%  37.5  270s
20:29:13 | INFO    |  114106 18929 infeasible   60        77.09076    0.06964   100%  37.4  275s
20:29:18 | INFO    |  123130 19881    0.09303   49    8   77.09076    0.07077   100%  37.3  280s
20:29:23 | INFO    |  132417 20982 infeasible   64        77.09076    0.07183   100%  37.2  285s
20:29:29 | INFO    |  137140 21301    0.08000   68   16   77.09076    0.07239   100%  37.2  290s
20:29:33 | INFO    |  138643 21517    0.14417   69   19   77.09076    0.07241   100%  37.2  295s
20:29:38 | INFO    |  146315 22202   67.07034   62   26   77.09076    0.07347   100%  37.2  300s
20:29:43 | INFO    |  154983 22558 infeasible   96        77.09076    0.07466   100%  37.1  305s
20:29:48 | INFO    |  162988 22871    0.11400   45   18   77.09076    0.07572   100%  37.1  310s
20:29:52 | INFO    | H169522 22984                      77.0907549    0.07654   100%  37.2  314s
20:29:53 | INFO    |  170955 22923 infeasible  113        77.09075    0.07677   100%  37.2  315s
20:29:58 | INFO    |  180277 22967   76.09700   73    9   77.09075    0.07812   100%  37.2  320s
20:30:03 | INFO    |  188652 22771    0.14852   74   11   77.09075    0.07955   100%  37.3  325s
20:30:08 | INFO    |  197288 22567    0.08593   79   24   77.09075    0.08105   100%  37.3  330s
20:30:13 | INFO    |  206457 22197 infeasible   59        77.09075    0.08288   100%  37.3  335s
20:30:18 | INFO    |  214549 21722 infeasible   82        77.09075    0.08446   100%  37.3  340s
20:30:23 | INFO    |  223695 20963 infeasible   62        77.09075    0.08657   100%  37.3  345s
20:30:28 | INFO    |  231867 20126 infeasible   57        77.09075    0.08857   100%  37.3  350s
20:30:33 | INFO    |  241199 19067    0.17370   60   12   77.09075    0.09126   100%  37.4  355s
20:30:38 | INFO    |  248879 17913   50.12579   63   18   77.09075    0.09388   100%  37.4  360s
20:30:43 | INFO    |  256944 16439    8.55860   65   19   77.09075    0.09778   100%  37.4  365s
20:30:48 | INFO    |  264109 15127    9.34776   67   23   77.09075    0.10167   100%  37.4  370s
20:30:54 | INFO    |  270570 13624    0.15900   62   10   77.09075    0.10605   100%  37.5  375s
20:30:58 | INFO    |  278820 11758 infeasible   63        77.09075    0.11550   100%  37.5  380s
20:31:03 | INFO    |  285738  9916 infeasible   75        77.09075    0.12800   100%  37.5  385s
20:31:08 | INFO    |  293125  7436   50.04879   46   55   77.09075    0.17050   100%  37.5  390s
20:31:13 | INFO    |  304273  6295 infeasible   64        77.09075    9.30040  87.9%  37.1  395s
20:31:18 | INFO    |  313645  6152   57.04903   65   20   77.09075   37.02634  52.0%  36.7  400s
20:31:23 | INFO    |  322190  5528   50.91797   84   13   77.09075   37.07400  51.9%  36.5  405s
20:31:28 | INFO    |  332597  5500 infeasible   57        77.09075   47.04808  39.0%  36.2  410s
20:31:33 | INFO    |  342959  4373 infeasible   85        77.09075   47.10800  38.9%  36.1  415s
20:31:38 | INFO    |  353245  3056   57.04145   46   79   77.09075   57.02459  26.0%  35.9  420s
20:31:43 | INFO    |  362774  2021   62.06400   54   33   77.09075   59.04480  23.4%  35.7  425s
20:31:48 | INFO    |  374944  1134     cutoff   49        77.09075   67.07454  13.0%  35.5  430s
20:31:50 | INFO    | 
20:31:50 | INFO    | Cutting planes:
20:31:50 | INFO    |   Cover: 13
20:31:50 | INFO    |   Implied bound: 32
20:31:50 | INFO    |   Projected implied bound: 2
20:31:50 | INFO    |   Clique: 2
20:31:50 | INFO    |   MIR: 58
20:31:50 | INFO    |   Flow cover: 306
20:31:50 | INFO    |   GUB cover: 1
20:31:50 | INFO    |   Inf proof: 1
20:31:50 | INFO    |   Zero half: 1
20:31:50 | INFO    |   RLT: 22
20:31:50 | INFO    |   Relax-and-lift: 75
20:31:50 | INFO    |   PSD: 3
20:31:50 | INFO    | 
20:31:50 | INFO    | Explored 380645 nodes (13473816 simplex iterations) in 432.50 seconds (465.70 work units)
20:31:50 | INFO    | Thread count was 16 (of 16 available processors)
20:31:50 | INFO    | 
20:31:50 | INFO    | Solution count 10: 77.0908 77.0908 77.091 ... 87.131
20:31:50 | INFO    | 
20:31:50 | INFO    | Optimal solution found (tolerance 1.00e-02)
20:31:50 | INFO    | Best objective 7.709075489252e+01, best bound 7.709075489252e+01, gap 0.0000%
20:31:50 | INFO    | Solution found | route_duration=77.00 | total_wait=91.00
20:31:50 | INFO    | Objective=77.09 | runtime=432.50s | MIP Gap=0.00%
20:31:50 | INFO    | Generating Excel output | C:\Users\Asus\Documents\GitHub\logistics-model2\internal-logistics-model2\results\MR_MV_RD\case1\result_MR_MV_RD_case1_P5_R3_eps9999_2026_05_04_20_24.xlsx
20:31:51 | INFO    | Excel output written | 12 sheets | C:\Users\Asus\Documents\GitHub\logistics-model2\internal-logistics-model2\results\MR_MV_RD\case1\result_MR_MV_RD_case1_P5_R3_eps9999_2026_05_04_20_24.xlsx
20:31:51 | INFO    | Master Pareto updated | 6 total rows | C:\Users\Asus\Documents\GitHub\logistics-model2\internal-logistics-model2\results\master_pareto.xlsx
20:31:51 | INFO    | Run complete | run_id=MR_MV_RD_case1_P5_R3_eps9999
